48
1 0 5
2 0 7
2 1 5
3 0 6
3 1 9
3 2 1
4 0 11
4 1 4
4 2 1
4 3 4
5 0 11
5 1 7
5 2 7
5 3 5
5 4 3
6 0 10
6 1 4
6 2 2
6 3 2
6 4 7
6 5 8
7 0 10
7 1 8
7 2 2
7 3 3
7 4 8
7 5 9
7 6 8
8 0 6
8 1 3
8 2 4
8 3 1
8 4 10
8 5 10
8 6 11
8 7 6
9 0 6
9 1 9
9 2 4
9 3 1
9 4 11
9 5 11
9 6 6
9 7 8
9 8 7
10 0 11
10 1 2
10 2 1
10 3 8
10 4 4
10 5 3
10 6 6
10 7 11
10 8 3
10 9 2
11 0 2
11 1 2
11 2 8
11 3 1
11 4 6
11 5 7
11 6 5
11 7 4
11 8 6
11 9 5
11 10 8
12 0 5
12 1 4
12 2 4
12 3 10
12 4 3
12 5 8
12 6 9
12 7 4
12 8 10
12 9 1
12 10 8
12 11 4
13 0 5
13 1 5
13 2 3
13 3 4
13 4 4
13 5 11
13 6 2
13 7 2
13 8 6
13 9 6
13 10 7
13 11 8
13 12 6
14 0 8
14 1 7
14 2 11
14 3 3
14 4 7
14 5 8
14 6 5
14 7 4
14 8 6
14 9 1
14 10 6
14 11 5
14 12 10
14 13 3
15 0 6
15 1 4
15 2 5
15 3 7
15 4 4
15 5 10
15 6 5
15 7 8
15 8 1
15 9 10
15 10 4
15 11 8
15 12 8
15 13 10
15 14 6
16 0 2
16 1 1
16 2 9
16 3 10
16 4 2
16 5 9
16 6 1
16 7 3
16 8 5
16 9 8
16 10 5
16 11 6
16 12 7
16 13 8
16 14 2
16 15 3
17 0 9
17 1 5
17 2 1
17 3 1
17 4 6
17 5 2
17 6 2
17 7 2
17 8 4
17 9 7
17 10 4
17 11 5
17 12 4
17 13 10
17 14 7
17 15 4
17 16 8
18 0 1
18 1 4
18 2 11
18 3 5
18 4 8
18 5 3
18 6 4
18 7 6
18 8 9
18 9 3
18 10 4
18 11 5
18 12 10
18 13 1
18 14 2
18 15 11
18 16 11
18 17 3
19 0 9
19 1 7
19 2 6
19 3 10
19 4 10
19 5 8
19 6 6
19 7 10
19 8 1
19 9 2
19 10 11
19 11 5
19 12 2
19 13 3
19 14 10
19 15 6
19 16 11
19 17 1
19 18 5
20 0 2
20 1 8
20 2 6
20 3 9
20 4 4
20 5 1
20 6 8
20 7 7
20 8 6
20 9 1
20 10 5
20 11 1
20 12 8
20 13 9
20 14 5
20 15 8
20 16 9
20 17 6
20 18 5
20 19 4
21 0 6
21 1 10
21 2 8
21 3 8
21 4 7
21 5 3
21 6 3
21 7 1
21 8 10
21 9 11
21 10 5
21 11 1
21 12 11
21 13 5
21 14 4
21 15 10
21 16 2
21 17 5
21 18 3
21 19 1
21 20 8
22 0 7
22 1 9
22 2 10
22 3 4
22 4 1
22 5 8
22 6 7
22 7 9
22 8 8
22 9 10
22 10 4
22 11 9
22 12 10
22 13 2
22 14 5
22 15 11
22 16 2
22 17 9
22 18 3
22 19 1
22 20 1
22 21 3
23 0 10
23 1 2
23 2 10
23 3 9
23 4 3
23 5 3
23 6 1
23 7 9
23 8 10
23 9 1
23 10 9
23 11 4
23 12 1
23 13 11
23 14 9
23 15 2
23 16 3
23 17 4
23 18 1
23 19 6
23 20 6
23 21 7
23 22 1
24 0 4
24 1 1
24 2 5
24 3 11
24 4 8
24 5 8
24 6 6
24 7 9
24 8 9
24 9 8
24 10 4
24 11 9
24 12 4
24 13 4
24 14 9
24 15 3
24 16 5
24 17 7
24 18 11
24 19 2
24 20 10
24 21 8
24 22 9
24 23 10
25 0 11
25 1 6
25 2 5
25 3 1
25 4 1
25 5 6
25 6 10
25 7 3
25 8 2
25 9 5
25 10 8
25 11 2
25 12 6
25 13 3
25 14 8
25 15 2
25 16 10
25 17 11
25 18 5
25 19 7
25 20 9
25 21 11
25 22 1
25 23 4
25 24 3
26 0 7
26 1 4
26 2 11
26 3 10
26 4 8
26 5 3
26 6 7
26 7 7
26 8 10
26 9 10
26 10 10
26 11 7
26 12 3
26 13 8
26 14 4
26 15 7
26 16 5
26 17 10
26 18 2
26 19 1
26 20 7
26 21 4
26 22 8
26 23 1
26 24 1
26 25 4
27 0 7
27 1 1
27 2 7
27 3 6
27 4 11
27 5 10
27 6 7
27 7 2
27 8 1
27 9 7
27 10 8
27 11 8
27 12 10
27 13 11
27 14 9
27 15 3
27 16 3
27 17 8
27 18 6
27 19 1
27 20 6
27 21 8
27 22 1
27 23 11
27 24 2
27 25 2
27 26 3
28 0 9
28 1 11
28 2 10
28 3 3
28 4 1
28 5 1
28 6 4
28 7 7
28 8 9
28 9 11
28 10 5
28 11 3
28 12 8
28 13 7
28 14 7
28 15 7
28 16 9
28 17 7
28 18 11
28 19 6
28 20 4
28 21 4
28 22 8
28 23 8
28 24 11
28 25 7
28 26 2
28 27 8
29 0 11
29 1 6
29 2 3
29 3 1
29 4 7
29 5 3
29 6 8
29 7 10
29 8 2
29 9 2
29 10 4
29 11 10
29 12 1
29 13 10
29 14 11
29 15 11
29 16 5
29 17 9
29 18 4
29 19 2
29 20 5
29 21 9
29 22 5
29 23 11
29 24 11
29 25 1
29 26 8
29 27 5
29 28 11
30 0 8
30 1 1
30 2 3
30 3 2
30 4 9
30 5 10
30 6 8
30 7 5
30 8 2
30 9 5
30 10 7
30 11 8
30 12 5
30 13 8
30 14 7
30 15 3
30 16 7
30 17 1
30 18 3
30 19 1
30 20 10
30 21 8
30 22 8
30 23 4
30 24 6
30 25 8
30 26 8
30 27 7
30 28 2
30 29 11
31 0 2
31 1 10
31 2 8
31 3 4
31 4 2
31 5 7
31 6 8
31 7 8
31 8 10
31 9 3
31 10 5
31 11 1
31 12 6
31 13 3
31 14 11
31 15 5
31 16 2
31 17 9
31 18 2
31 19 8
31 20 10
31 21 5
31 22 10
31 23 2
31 24 1
31 25 6
31 26 4
31 27 2
31 28 8
31 29 10
31 30 5
32 0 8
32 1 10
32 2 1
32 3 6
32 4 7
32 5 8
32 6 5
32 7 10
32 8 9
32 9 3
32 10 7
32 11 3
32 12 4
32 13 4
32 14 7
32 15 1
32 16 1
32 17 4
32 18 4
32 19 3
32 20 9
32 21 11
32 22 8
32 23 4
32 24 8
32 25 7
32 26 2
32 27 1
32 28 8
32 29 8
32 30 6
32 31 7
33 0 8
33 1 8
33 2 1
33 3 1
33 4 7
33 5 3
33 6 10
33 7 5
33 8 7
33 9 9
33 10 11
33 11 4
33 12 7
33 13 6
33 14 3
33 15 3
33 16 10
33 17 2
33 18 5
33 19 10
33 20 10
33 21 4
33 22 1
33 23 6
33 24 3
33 25 6
33 26 4
33 27 4
33 28 5
33 29 1
33 30 7
33 31 1
33 32 10
34 0 10
34 1 7
34 2 3
34 3 3
34 4 2
34 5 4
34 6 3
34 7 4
34 8 8
34 9 3
34 10 4
34 11 1
34 12 4
34 13 10
34 14 5
34 15 7
34 16 8
34 17 11
34 18 4
34 19 6
34 20 3
34 21 10
34 22 6
34 23 7
34 24 1
34 25 5
34 26 9
34 27 8
34 28 6
34 29 8
34 30 2
34 31 1
34 32 8
34 33 4
35 0 7
35 1 10
35 2 1
35 3 7
35 4 4
35 5 10
35 6 11
35 7 6
35 8 7
35 9 9
35 10 3
35 11 8
35 12 11
35 13 5
35 14 6
35 15 2
35 16 2
35 17 7
35 18 11
35 19 9
35 20 9
35 21 9
35 22 6
35 23 8
35 24 8
35 25 10
35 26 4
35 27 2
35 28 5
35 29 9
35 30 2
35 31 6
35 32 1
35 33 2
35 34 1
36 0 3
36 1 8
36 2 3
36 3 11
36 4 11
36 5 7
36 6 4
36 7 10
36 8 3
36 9 2
36 10 2
36 11 6
36 12 11
36 13 7
36 14 3
36 15 8
36 16 6
36 17 7
36 18 11
36 19 5
36 20 6
36 21 7
36 22 2
36 23 8
36 24 10
36 25 8
36 26 7
36 27 5
36 28 11
36 29 3
36 30 6
36 31 9
36 32 3
36 33 11
36 34 3
36 35 3
37 0 4
37 1 11
37 2 2
37 3 3
37 4 7
37 5 8
37 6 4
37 7 5
37 8 9
37 9 9
37 10 1
37 11 9
37 12 8
37 13 1
37 14 9
37 15 9
37 16 4
37 17 4
37 18 1
37 19 9
37 20 11
37 21 1
37 22 10
37 23 9
37 24 3
37 25 6
37 26 2
37 27 8
37 28 8
37 29 11
37 30 3
37 31 2
37 32 5
37 33 9
37 34 7
37 35 9
37 36 10
38 0 9
38 1 5
38 2 5
38 3 3
38 4 7
38 5 2
38 6 1
38 7 6
38 8 6
38 9 6
38 10 3
38 11 9
38 12 4
38 13 4
38 14 10
38 15 6
38 16 5
38 17 7
38 18 2
38 19 4
38 20 5
38 21 3
38 22 11
38 23 7
38 24 2
38 25 10
38 26 3
38 27 10
38 28 7
38 29 2
38 30 8
38 31 11
38 32 5
38 33 1
38 34 2
38 35 6
38 36 10
38 37 7
39 0 7
39 1 11
39 2 2
39 3 3
39 4 1
39 5 1
39 6 3
39 7 3
39 8 3
39 9 11
39 10 4
39 11 10
39 12 7
39 13 3
39 14 4
39 15 1
39 16 2
39 17 3
39 18 11
39 19 5
39 20 5
39 21 1
39 22 7
39 23 7
39 24 2
39 25 11
39 26 3
39 27 11
39 28 9
39 29 6
39 30 10
39 31 6
39 32 4
39 33 3
39 34 11
39 35 10
39 36 7
39 37 10
39 38 10
40 0 4
40 1 11
40 2 2
40 3 1
40 4 7
40 5 3
40 6 11
40 7 2
40 8 2
40 9 8
40 10 2
40 11 6
40 12 9
40 13 1
40 14 4
40 15 11
40 16 3
40 17 2
40 18 1
40 19 1
40 20 5
40 21 4
40 22 1
40 23 2
40 24 8
40 25 8
40 26 6
40 27 11
40 28 2
40 29 1
40 30 10
40 31 7
40 32 6
40 33 5
40 34 5
40 35 4
40 36 4
40 37 8
40 38 6
40 39 3
41 0 6
41 1 6
41 2 5
41 3 3
41 4 1
41 5 3
41 6 11
41 7 7
41 8 10
41 9 9
41 10 1
41 11 6
41 12 2
41 13 8
41 14 8
41 15 8
41 16 7
41 17 4
41 18 4
41 19 5
41 20 7
41 21 11
41 22 4
41 23 2
41 24 11
41 25 11
41 26 1
41 27 7
41 28 4
41 29 1
41 30 8
41 31 4
41 32 8
41 33 1
41 34 10
41 35 8
41 36 9
41 37 8
41 38 8
41 39 9
41 40 1
42 0 8
42 1 3
42 2 10
42 3 7
42 4 10
42 5 6
42 6 4
42 7 11
42 8 11
42 9 10
42 10 8
42 11 6
42 12 3
42 13 10
42 14 4
42 15 5
42 16 6
42 17 2
42 18 2
42 19 2
42 20 11
42 21 1
42 22 4
42 23 1
42 24 6
42 25 10
42 26 10
42 27 5
42 28 2
42 29 6
42 30 1
42 31 2
42 32 9
42 33 8
42 34 7
42 35 2
42 36 1
42 37 6
42 38 8
42 39 3
42 40 4
42 41 8
43 0 11
43 1 2
43 2 3
43 3 2
43 4 3
43 5 8
43 6 4
43 7 8
43 8 5
43 9 5
43 10 11
43 11 6
43 12 7
43 13 9
43 14 10
43 15 3
43 16 4
43 17 3
43 18 6
43 19 1
43 20 3
43 21 11
43 22 9
43 23 2
43 24 11
43 25 1
43 26 11
43 27 7
43 28 4
43 29 2
43 30 9
43 31 6
43 32 9
43 33 1
43 34 2
43 35 4
43 36 9
43 37 10
43 38 8
43 39 2
43 40 9
43 41 11
43 42 7
44 0 4
44 1 9
44 2 2
44 3 11
44 4 4
44 5 4
44 6 4
44 7 9
44 8 6
44 9 11
44 10 11
44 11 10
44 12 9
44 13 8
44 14 11
44 15 7
44 16 9
44 17 10
44 18 10
44 19 4
44 20 7
44 21 7
44 22 2
44 23 8
44 24 10
44 25 3
44 26 9
44 27 4
44 28 2
44 29 4
44 30 6
44 31 5
44 32 10
44 33 10
44 34 8
44 35 11
44 36 4
44 37 1
44 38 3
44 39 8
44 40 2
44 41 6
44 42 6
44 43 6
45 0 6
45 1 10
45 2 7
45 3 1
45 4 4
45 5 7
45 6 3
45 7 6
45 8 8
45 9 10
45 10 8
45 11 11
45 12 4
45 13 11
45 14 11
45 15 6
45 16 2
45 17 1
45 18 11
45 19 5
45 20 7
45 21 2
45 22 2
45 23 3
45 24 5
45 25 7
45 26 6
45 27 2
45 28 1
45 29 4
45 30 3
45 31 1
45 32 11
45 33 3
45 34 5
45 35 10
45 36 2
45 37 9
45 38 6
45 39 8
45 40 6
45 41 1
45 42 8
45 43 11
45 44 8
46 0 3
46 1 6
46 2 1
46 3 8
46 4 3
46 5 6
46 6 10
46 7 3
46 8 4
46 9 1
46 10 8
46 11 9
46 12 6
46 13 7
46 14 1
46 15 8
46 16 6
46 17 5
46 18 2
46 19 2
46 20 10
46 21 4
46 22 10
46 23 5
46 24 9
46 25 1
46 26 6
46 27 5
46 28 10
46 29 2
46 30 2
46 31 5
46 32 5
46 33 11
46 34 8
46 35 11
46 36 7
46 37 10
46 38 9
46 39 10
46 40 10
46 41 4
46 42 9
46 43 11
46 44 4
46 45 1
47 0 1
47 1 7
47 2 9
47 3 3
47 4 10
47 5 8
47 6 5
47 7 3
47 8 1
47 9 5
47 10 4
47 11 1
47 12 8
47 13 2
47 14 7
47 15 7
47 16 2
47 17 6
47 18 5
47 19 7
47 20 2
47 21 4
47 22 10
47 23 3
47 24 9
47 25 4
47 26 3
47 27 10
47 28 8
47 29 8
47 30 5
47 31 9
47 32 1
47 33 1
47 34 1
47 35 1
47 36 10
47 37 2
47 38 10
47 39 8
47 40 6
47 41 11
47 42 4
47 43 1
47 44 3
47 45 6
47 46 1
